5603
5575
5576
5594
5647
5591
5707
5591
5631
5590
5639
5604
5503
5553
5573
5583
5623
5531
5672
5507
5544
5625
5595
5638
5645
5628
5628
5669
5587
5576
5636
5667
5689
5601
5520
5670
5603
5565
5611
5680
5611
5655
5625
5528
5596
5706
5620
5719
5596
5648
5611
5546
5628
5641
5610
5628
5615
5624
5645
5504
5638
5669
5594
5725
5698
5583
5632
5589
5675
5613
5597
5692
5637
5542
5681
5507
5654
5729
5498
5529
5744
5595
5583
5518
5607
5633
5636
5653
5521
5628
5555
5600
5589
5661
5588
5532
5637
5528
5421
5578
